N = 4;

ACTORES = { Actor1 , Actor2 , Actor3 , Actor4 };

M = 4;

Escenas =
[| 1 , 0 , 1 , 1 , 10
| 0 , 1 , 0 , 1 , 20
| 0 , 1 , 1 , 0 , 5
| 1 , 0 , 0 , 1 , 2|];

Duracion =
[ 2 , 3 , 1 , 2 ];

Maximo_tiempo_actores = 
[8, 8, 8, 8];

E = 0;

Actores_separados = 
[];

c_weight = 1.0;

t_weight = 0.0;